Gurobi Optimizer version 9.1.2 build v9.1.2rc0 (linux64)
Thread count: 36 physical cores, 72 logical processors, using up to 32 threads
Optimize a model with 12 rows, 57 columns and 590 nonzeros
Model fingerprint: 0xf32eec78
Model has 47 quadratic constraints
Coefficient statistics:
  Matrix range     [2e-05, 3e+00]
  QMatrix range    [1e+00, 1e+00]
  QLMatrix range   [1e+00, 1e+00]
  Objective range  [8e-03, 7e-01]
  Bounds range     [1e+00, 1e+00]
  RHS range        [1e+00, 1e+00]
Presolve removed 9 rows and 0 columns

Continuous model is non-convex -- solving as a MIP.

Presolve removed 9 rows and 0 columns
Presolve time: 0.00s
Presolved: 189 rows, 57 columns, 443 nonzeros
Presolved model has 47 bilinear constraint(s)
Variable types: 57 continuous, 0 integer (0 binary)

Root relaxation: objective -1.743721e+00, 44 iterations, 0.00 seconds

    Nodes    |    Current Node    |     Objective Bounds      |     Work
 Expl Unexpl |  Obj  Depth IntInf | Incumbent    BestBd   Gap | It/Node Time

     0     0   -1.74372    0   38          -   -1.74372      -     -    0s
H    0     0                       0.6147548   -1.74372   384%     -    0s
     0     0   -1.64739    0    1    0.61475   -1.64739   368%     -    0s
H    0     0                      -1.6450460   -1.64739  0.14%     -    0s
     0     0     cutoff    0        -1.64505   -1.64505  0.00%     -    0s

Cutting planes:
  RLT: 25
  BQP: 3

Explored 1 nodes (76 simplex iterations) in 0.01 seconds
Thread count was 32 (of 72 available processors)

Solution count 2: -1.64505 0.614755 
No other solutions better than -1.64505

Optimal solution found (tolerance 1.00e-04)
Best objective -1.645045978473e+00, best bound -1.645045978473e+00, gap 0.0000%

User-callback calls 78, time in user-callback 0.00 sec
Gurobi Optimizer version 9.1.2 build v9.1.2rc0 (linux64)
Thread count: 36 physical cores, 72 logical processors, using up to 32 threads
Optimize a model with 60 rows, 300 columns and 15500 nonzeros
Model fingerprint: 0xebcf97d0
Model has 250 quadratic constraints
Coefficient statistics:
  Matrix range     [1e-06, 4e+00]
  QMatrix range    [1e+00, 1e+00]
  QLMatrix range   [1e+00, 1e+00]
  Objective range  [3e-04, 1e+00]
  Bounds range     [1e+00, 1e+00]
  RHS range        [1e+00, 1e+00]
Presolve removed 11 rows and 0 columns

Continuous model is non-convex -- solving as a MIP.

Presolve removed 11 rows and 0 columns
Presolve time: 0.01s
Presolved: 1049 rows, 300 columns, 14160 nonzeros
Presolved model has 250 bilinear constraint(s)
Variable types: 300 continuous, 0 integer (0 binary)

Root relaxation: objective -2.675877e+01, 379 iterations, 0.02 seconds

    Nodes    |    Current Node    |     Objective Bounds      |     Work
 Expl Unexpl |  Obj  Depth IntInf | Incumbent    BestBd   Gap | It/Node Time

     0     0  -26.75877    0  209          -  -26.75877      -     -    0s
     0     0  -24.20526    0  211          -  -24.20526      -     -    0s
     0     0  -23.59694    0  171          -  -23.59694      -     -    0s
     0     0  -23.59660    0  151          -  -23.59660      -     -    0s
     0     0  -23.51920    0  127          -  -23.51920      -     -    0s
     0     0  -23.51751    0  127          -  -23.51751      -     -    0s
     0     0  -23.51411    0  119          -  -23.51411      -     -    0s
H    0     0                     -19.3494581  -23.51411  21.5%     -    0s
H    0     0                     -20.0961196  -23.51411  17.0%     -    0s
H    0     0                     -20.1218667  -23.51411  16.9%     -    0s
     0     2  -23.51411    0  119  -20.12187  -23.51411  16.9%     -    0s
* 1941  1096              91     -20.1218728  -21.85590  8.62%  66.8    2s
* 1942  1096              91     -20.1218785  -21.85590  8.62%  66.8    2s
* 2020  1187              53     -20.2016949  -21.85590  8.19%  65.9    2s
* 2442  1349              55     -20.3948924  -21.75876  6.69%  63.9    2s
* 3389  1726              49     -20.3951199  -21.62343  6.02%  60.9    2s
* 3390  1726              49     -20.3951229  -21.62343  6.02%  60.9    2s
* 3394  1726              49     -20.3951310  -21.62343  6.02%  60.8    2s
* 3395  1726              49     -20.3951345  -21.62343  6.02%  60.8    2s
  5773  1372     cutoff   46       -20.39513  -21.62343  6.02%  66.1    5s
* 6637  1362              85     -20.4059484  -21.62343  5.97%  65.4    5s
* 6935  1308              87     -20.4067874  -21.62343  5.96%  64.6    5s
* 6942  1246              89     -20.4068652  -21.62343  5.96%  64.5    5s
* 7140  1331              89     -20.4068676  -21.62343  5.96%  64.1    5s
* 7226  1463              82     -20.5548028  -21.62343  5.20%  64.0    5s
* 8153  1726             158     -20.6401670  -21.62343  4.76%  62.9    5s
* 8155  1726             159     -20.6407479  -21.62343  4.76%  62.9    5s
* 8462  1712              86     -20.8528338  -21.62343  3.70%  62.6    5s
* 8463  1712              86     -20.8528343  -21.62343  3.70%  62.6    5s
*10468  1849              87     -20.8531028  -21.60112  3.59%  62.7    6s
*10469  1849              87     -20.8531494  -21.60112  3.59%  62.7    6s
*10546  1849              91     -20.8615049  -21.60112  3.55%  62.4    6s
*10548  1849              92     -20.8615780  -21.60112  3.54%  62.4    6s
*10642  1849              79     -20.8678731  -21.60112  3.51%  62.1    6s
*11097  1829              76     -20.8683087  -21.53996  3.22%  61.4    6s
*11100  1829              76     -20.8683301  -21.53996  3.22%  61.4    6s
*11257  1829              64     -20.9041074  -21.53996  3.04%  60.8    6s
*11258  1829              65     -20.9041075  -21.53996  3.04%  60.8    6s
*11380  1654              90     -20.9061261  -21.45090  2.61%  60.8    6s
*11382  1654              89     -20.9061267  -21.45090  2.61%  60.7    6s
*11390  1654              92     -20.9061310  -21.45090  2.61%  60.7    6s
*11423  1654              79     -20.9138997  -21.45090  2.57%  60.7    6s
*11633  1654              79     -20.9181459  -21.45090  2.55%  60.4    6s
*12972  1333              69     -20.9181496  -21.09321  0.84%  59.9    7s
*13017  1333              68     -20.9185354  -21.09321  0.84%  59.8    7s
*13019  1333              67     -20.9188924  -21.09321  0.83%  59.8    7s
*13730   719              72     -20.9189638  -21.00179  0.40%  58.2    7s
*13731   719              72     -20.9190084  -21.00179  0.40%  58.2    7s
*13733   719              72     -20.9190090  -21.00179  0.40%  58.2    7s
*13734   719              72     -20.9190168  -21.00179  0.40%  58.2    7s
*14579   719              63     -20.9192107  -20.96908  0.24%  55.4    7s
*14759   209              69     -20.9192131  -20.94714  0.13%  54.9    7s
*14762   209              68     -20.9192137  -20.94714  0.13%  54.8    7s
*15642    77              68     -20.9192138  -20.92119  0.01%  51.9    7s

Explored 16040 nodes (813911 simplex iterations) in 7.94 seconds
Thread count was 32 (of 72 available processors)

Solution count 10: -20.9192 -20.9192 -20.9192 ... -20.9185

Optimal solution found (tolerance 1.00e-04)
Best objective -2.091921377993e+01, best bound -2.092017055866e+01, gap 0.0046%

User-callback calls 33020, time in user-callback 0.01 sec



objective value: -20.91921377993494
objective bound: -20.920170558655386
x_opt: [0.0, 1.0, 1.0, 0.0, 0.0, 0.0, 1.0, 1.0, 0.0, 0.0, 0.2545976786759205, 0.4175838341149472, 0.0, 1.0, 1.0, 1.0, 0.0, 1.0, 0.0, 0.0, 0.0, 1.0, 1.0, 1.0, 0.0, 1.0, 1.0, 1.0, 0.0, 0.9589576482762727, 1.0, 0.8230745372552367, 0.0, 0.2118001159173248, 1.0, 1.0, 1.0, 1.0, 0.3654809381369953, 1.0, 0.8681524337988858, 0.23809270335968885, 1.0, 0.0, 0.0, 0.7589017479261468, 0.10450804703497463, 0.10103642645794003, 0.0, 1.0]
GUROBI solution time: 7.940741062164307

